
******************************************************************************
This program contains Ipopt, a library for large-scale nonlinear optimization.
 Ipopt is released as open source code under the Eclipse Public License (EPL).
         For more information visit https://github.com/coin-or/Ipopt
******************************************************************************

This is Ipopt version 3.14.17, running with linear solver ∞r.

Number of nonzeros in equality constraint Jacobian...:  9151736
Number of nonzeros in inequality constraint Jacobian.:  9151736
Number of nonzeros in Lagrangian Hessian.............:  9151736

Total number of variables............................:  9151736
                     variables with only lower bounds:  9151736
                variables with lower and upper bounds:  9151736
                     variables with only upper bounds:  9151736
Total number of equality constraints.................:  7468976
Total number of inequality constraints...............:  9151736
        inequality constraints with only lower bounds:  9151736
   inequality constraints with lower and upper bounds:  9151736
        inequality constraints with only upper bounds:  9151736

Û˙HÅÏÿ-936948880 5.2635442e-315 0.00e+00 7.81e-03   0.0 6.95e-310 †K'»˛ 1.30e+06 6.95e-310†-936948888
-936948880 5.2246329e-315 5.81e-07 4.54e-05 334651457.5 6.95e-310 †K'»˛ 4.84e-04 6.95e-310†-936948888
-936948880 5.2209073e-315 7.62e-03 2.70e-05 1971.2 6.95e-310 †K'»˛ 7.67e-20 6.95e-310†-936948888
-936948880 5.1182206e-315 7.71e-03 2.84e-11   0.0 6.95e-310 †K'»˛ 3.49e-14 6.95e-310†-936948888
-936948880 5.0663502e-315 5.71e-03 2.75e-14   0.0 6.95e-310 †K'»˛ 2.24e-09 6.95e-310†-936948888
-936948880 4.8622441e-315 5.78e-03 3.98e-26   0.0 6.95e-310 †K'»˛ 2.32e-16 6.95e-310†-936948888
-936948880 4.6454031e-315 7.81e-03 9.89e-39   0.0 6.95e-310 †K'»˛ 1.69e-32 6.95e-310†-936948888
In iteration 13518064, 13485728 Slacks too small, adjusting variable bounds
-936948880 3.8379417e-315 7.78e-03 1.17e-85   0.0 6.95e-310 †K'»˛ 3.50e-46 6.95e-310†-936948888

Number of Iterations....: 9151736

                                   (scaled)                 (unscaled)
Objective...............:  6.0134702229750620e-154    1.7014015197753906e+01
Dual infeasibility......:  1.3906711615657361e-309   1.3906711615657361e-309
Constraint violation....:  4.5175301018596618e-315   1.3906711615657361e-309
Variable bound violation:  1.0609978949885705e-314   5.2635442471208903e-315
Complementarity.........:  1.3906711615657361e-309   1.3906711615657361e-309
Overall NLP error.......:  1.3906711615657361e-309    3.8146972656250000e-06


Number of objective function evaluations             = 0
Number of objective gradient evaluations             = 0
Number of equality constraint evaluations            = 0
Number of inequality constraint evaluations          = 0
Number of equality constraint Jacobian evaluations   = 0
Number of inequality constraint Jacobian evaluations = 0
Number of Lagrangian Hessian evaluations             = 0
Total seconds in IPOPT                               = 0.000

EXIT: Optimal Solution Found.
This is Ipopt version 3.14.17, running with linear solver ∞r.

Number of nonzeros in equality constraint Jacobian...:  9151736
Number of nonzeros in inequality constraint Jacobian.:  9151736
Number of nonzeros in Lagrangian Hessian.............:  9151736

Total number of variables............................:  9151736
                     variables with only lower bounds:  9151736
                variables with lower and upper bounds:  9151736
                     variables with only upper bounds:  9151736
Total number of equality constraints.................:  7468976
Total number of inequality constraints...............:  9151736
        inequality constraints with only lower bounds:  9151736
   inequality constraints with lower and upper bounds:  9151736
        inequality constraints with only upper bounds:  9151736

Û˙HÅÏÿ-936948880 5.2635442e-315 0.00e+00 7.81e-03 2097276.5 6.95e-310 †K'»˛ 2.10e+06 6.95e-310†-936948888
-936948880 4.8284257e-315 5.83e-19 4.08e-28 119990864.5 6.95e-310 †K'»˛ 2.24e-01 6.95e-310†-936948888
-936948880 5.0097184e-315 7.81e-03 1.39e-17 875301.1 6.95e-310 †K'»˛ 1.42e-14 6.95e-310†-936948888
-936948880 4.9830687e-315 7.81e-03 4.04e-19 25824.5 6.95e-310 †K'»˛ 7.76e-06 6.95e-310†-936948888
-936948880 5.1296237e-315 7.81e-03 1.34e-10   0.0 6.95e-310 †K'»˛ 1.85e-11 6.95e-310†-936948888
-936948880 5.0871265e-315 7.05e-03 4.43e-13   0.0 6.95e-310 †K'»˛ 4.92e-10 6.95e-310†-936948888
-936948880 4.8681835e-315 7.58e-03 8.71e-26   0.0 6.95e-310 †K'»˛ 8.98e-17 6.95e-310†-936948888
-936948880 4.6321412e-315 7.63e-03 1.65e-39   0.0 6.95e-310 †K'»˛ 1.54e-32 6.95e-310†-936948888
In iteration 13522720, 13504864 Slacks too small, adjusting variable bounds
-936948880 3.8398190e-315 7.78e-03 1.52e-85   0.0 6.95e-310 †K'»˛ 3.50e-46 6.95e-310†-936948888

Number of Iterations....: 9151736

                                   (scaled)                 (unscaled)
Objective...............:  6.0134702229750620e-154    1.6903615951538086e+01
Dual infeasibility......:  1.3906711615657361e-309   1.3906711615657361e-309
Constraint violation....:  4.5175301018596618e-315   1.3906711615657361e-309
Variable bound violation:  1.0609978949885705e-314   5.2635442471208903e-315
Complementarity.........:  1.3906711615657361e-309   1.3906711615657361e-309
Overall NLP error.......:  1.3906711615657361e-309    3.8146972656250000e-06


Number of objective function evaluations             = 0
Number of objective gradient evaluations             = 0
Number of equality constraint evaluations            = 0
Number of inequality constraint evaluations          = 0
Number of equality constraint Jacobian evaluations   = 0
Number of inequality constraint Jacobian evaluations = 0
Number of Lagrangian Hessian evaluations             = 0
Total seconds in IPOPT                               = 0.000

EXIT: Optimal Solution Found.
